; benchmark generated from python API
(set-info :status unknown)
(declare-fun S_1 () Real)
(declare-fun L_1 () Real)
(declare-fun A_1 () Real)
(declare-fun L_2 () Real)
(declare-fun S_2 () Real)
(declare-fun A_2 () Real)
(declare-fun S_4 () Real)
(declare-fun L_4 () Real)
(declare-fun A_4 () Real)
(declare-fun L_0 () Real)
(declare-fun S_0 () Real)
(declare-fun A_0 () Real)
(declare-fun L_3 () Real)
(declare-fun S_3 () Real)
(declare-fun A_3 () Real)
(declare-fun B () Real)
(declare-fun S_5 () Real)
(declare-fun A_5 () Real)
(assert
 (let (($x39 (>= L_0 0.0)))
 (let (($x536 (>= B 5.0)))
 (let ((?x1604 (* 3.0 B)))
 (let ((?x2000 (* 3.0 L_3)))
 (let ((?x1086 (* (- 2.0) L_2)))
 (let ((?x953 (* 2.0 A_2)))
 (let ((?x1999 (* (- 3.0) A_3)))
 (let (($x7037 (<= (+ ?x1999 ?x953 S_5 ?x1086 ?x2000 ?x1604) 0.0)))
 (let ((?x3694 (* (/ 2.0 3.0) S_0)))
 (let (($x3698 (<= (+ (* (- (/ 5.0 3.0)) A_3) S_5 ?x3694 (* (/ 5.0 3.0) L_3) (* (/ 5.0 3.0) B)) 0.0)))
 (let ((?x1591 (* 2.0 B)))
 (let ((?x2264 (* 2.0 L_3)))
 (let ((?x593 (* (- 1.0) L_1)))
 (let ((?x2295 (* (- 2.0) A_3)))
 (let (($x76 (= L_3 L_2)))
 (let (($x150504 (<= (+ (* (- (/ 1.0 4.0)) S_5) (* (/ 1.0 4.0) S_0)) (- 5.0))))
 (let (($x32920 (<= (+ (* (/ 1.0 2.0) A_2) (* (- (/ 1.0 2.0)) S_5) (* (- (/ 1.0 2.0)) L_2)) (- 5.0))))
 (let (($x10446 (<= (+ A_3 (* (- 1.0) S_5) (* (- 1.0) L_3)) (- 5.0))))
 (let (($x1581 (<= (+ A_4 (* (- 1.0) S_5) (* (- 1.0) L_4)) 0.0)))
 (let (($x396 (<= (+ (* (- 1.0) A_2) A_1 ?x593 L_2) (- 5.0))))
 (let ((?x2540 (* 3.0 L_4)))
 (let ((?x580 (* (- 1.0) L_2)))
 (let ((?x2474 (* 2.0 S_5)))
 (let ((?x2579 (* (- 3.0) A_4)))
 (let (($x63853 (<= (+ ?x2579 A_2 ?x2474 ?x580 ?x2540 ?x1604) 0.0)))
 (let ((?x10029 (* 4.0 B)))
 (let ((?x2606 (* 4.0 L_4)))
 (let ((?x11443 (* 3.0 S_5)))
 (let ((?x2616 (* (- 4.0) A_4)))
 (let ((?x4564 (* (/ 1.0 4.0) S_0)))
 (let (($x4965 (<= (+ (* (- (/ 5.0 4.0)) A_4) S_5 ?x4564 (* (/ 5.0 4.0) L_4) (* (/ 5.0 4.0) B)) 0.0)))
 (let ((?x1882 (* 2.0 L_4)))
 (let ((?x567 (* (- 1.0) L_3)))
 (let ((?x1708 (* (- 2.0) A_4)))
 (let (($x1877 (<= (+ ?x1708 A_3 S_5 ?x567 ?x1882 ?x1591) 0.0)))
 (let (($x86 (= L_4 L_3)))
 (let (($x174603 (or $x86 $x1877 $x4965 (<= (+ ?x2616 A_1 ?x593 ?x11443 ?x2606 ?x10029) 0.0) $x63853)))
 (let (($x174559 (or $x86 (<= (+ ?x2616 (* 5.0 S_3) (* (- 1.0) S_0) ?x2606 ?x10029) 0.0))))
 (let ((?x1059 (* 2.0 L_2)))
 (let ((?x1192 (* (- 1.0) S_0)))
 (let ((?x17458 (* 3.0 S_1)))
 (let ((?x1037 (* (- 2.0) A_2)))
 (let (($x166912 (not (<= 0.0 (+ ?x1037 ?x17458 ?x1192 ?x1059)))))
 (let (($x70011 (<= (+ (* 2.0 A_3) (* (- 2.0) S_5) (* (- 2.0) L_3) S_1 ?x1192) 0.0)))
 (let ((?x1925 (* (- 2.0) L_3)))
 (let ((?x482 (* (- 1.0) S_5)))
 (let ((?x470 (* (- 1.0) A_2)))
 (let ((?x1924 (* 2.0 A_3)))
 (let (($x14123 (not (<= (+ ?x1924 ?x470 ?x482 ?x1925 L_2) 0.0))))
 (let ((?x3708 (* (/ 2.0 3.0) B)))
 (let ((?x4605 (* (/ 5.0 3.0) S_1)))
 (let (($x174379 (or $x86 (<= (+ ?x1708 ?x1924 ?x1925 S_1 ?x1192 ?x1882 ?x1591) 0.0) (<= (+ (* (- (/ 2.0 3.0)) A_4) ?x4605 ?x1192 (* (/ 2.0 3.0) L_4) ?x3708) 0.0) (<= (+ (* (- 1.0) A_4) A_2 ?x580 S_1 ?x1192 L_4 B) 0.0))))
 (let (($x35021 (<= (+ (* (- 1.0) A_4) S_5 L_4 (* (- (/ 1.0 2.0)) S_4) (* (/ 1.0 2.0) S_1)) 0.0)))
 (let (($x33476 (<= (+ (* (- 1.0) A_4) A_2 S_5 L_4 (* (- 1.0) S_4) ?x580) 0.0)))
 (let (($x1585 (<= (+ A_3 (* (- 1.0) S_4) ?x567) 0.0)))
 (let ((?x3719 (* (/ 1.0 3.0) B)))
 (let ((?x14337 (* (/ 1.0 3.0) L_4)))
 (let ((?x5529 (* (/ 1.0 3.0) S_1)))
 (let ((?x24051 (* (- (/ 1.0 3.0)) A_4)))
 (let (($x153586 (<= (+ (* (- 1.0) A_4) A_2 L_4 ?x580 B) (- 10.0))))
 (let (($x149734 (<= (+ (* (- 1.0) A_4) A_3 ?x567 L_4 B) (- 5.0))))
 (let (($x48673 (<= (+ (* (- 1.0) A_3) ?x470 A_1 L_3 S_4 ?x593 L_2 B) 0.0)))
 (let ((?x2879 (* (/ 1.0 2.0) B)))
 (let ((?x3287 (* (/ 1.0 2.0) L_2)))
 (let ((?x3421 (* (/ 1.0 2.0) S_0)))
 (let ((?x2802 (* (- (/ 1.0 2.0)) A_2)))
 (let ((?x466 (* (- 1.0) A_3)))
 (let (($x66 (= L_2 L_1)))
 (let ((?x2907 (* (/ 1.0 2.0) L_3)))
 (let ((?x2885 (* (/ 1.0 2.0) S_1)))
 (let ((?x2880 (* (- (/ 1.0 2.0)) A_3)))
 (let ((?x462 (* (- 1.0) A_4)))
 (let (($x118839 (<= (+ ?x462 ?x2880 S_5 L_4 ?x2885 ?x2907 ?x2879) 0.0)))
 (let (($x6963 (<= (+ ?x462 ?x466 A_2 S_5 L_4 ?x580 L_3 B) 0.0)))
 (let ((?x1064 (* (- 2.0) L_1)))
 (let ((?x2208 (* (- 2.0) S_3)))
 (let ((?x1027 (* 2.0 A_1)))
 (let (($x8082 (<= (+ ?x466 S_5 L_3 (* (- 1.0) S_3) S_0) 0.0)))
 (let (($x3369 (<= (+ A_2 (* (- 1.0) S_3) ?x580) 0.0)))
 (let ((?x1931 (* (- 3.0) L_3)))
 (let ((?x1930 (* 3.0 A_3)))
 (let (($x102816 (<= (+ ?x2579 ?x1930 A_2 ?x1931 ?x1192 ?x580 ?x2540 ?x1591) 0.0)))
 (let ((?x1588 (* (- 2.0) B)))
 (let ((?x17098 (* (- 5.0) L_2)))
 (let ((?x17097 (* (- 2.0) S_0)))
 (let ((?x17121 (* 5.0 A_2)))
 (let (($x17078 (<= (+ ?x2579 ?x17121 ?x17097 ?x17098 ?x2540 ?x1588) 0.0)))
 (let (($x148411 (or $x1581 (<= (+ ?x482 (* 2.0 S_2) (* (- 1.0) S_1)) 0.0) (<= (+ ?x1924 (* (- 2.0) S_5) ?x1925 S_2 (* (- 1.0) S_1)) 0.0))))
 (let (($x174129 (or $x1581 (<= (+ (* (- (/ 2.0 3.0)) S_5) ?x4605 ?x1192) 0.0) $x70011 (<= 0.0 (+ ?x470 (* (/ 1.0 3.0) S_5) (* (/ 2.0 3.0) S_1) L_2)))))
 (let (($x15735 (<= (+ ?x462 A_1 S_5 L_4 (* (- 1.0) S_3) ?x593) 0.0)))
 (let (($x6977 (<= (+ ?x2295 A_2 ?x580 S_4 ?x2264 ?x1591) 0.0)))
 (let (($x2886 (<= (+ (* (- (/ 3.0 2.0)) A_3) S_4 ?x2885 (* (/ 3.0 2.0) L_3) (* (/ 3.0 2.0) B)) 0.0)))
 (let (($x153680 (<= 0.0 (+ (* (- 1.0) A_1) (* (/ 1.0 4.0) S_4) (* (/ 3.0 4.0) S_0) L_1))))
 (let (($x151859 (<= 0.0 (+ ?x462 A_3 A_2 (* (- 1.0) A_1) ?x567 ?x580 L_1 L_4))))
 (let ((?x610 (* (- 1.0) B)))
 (let ((?x2001 (* (- 2.0) L_4)))
 (let ((?x1598 (* 2.0 A_4)))
 (let (($x373945 (or $x66 (<= (+ ?x1598 ?x2295 ?x470 ?x2264 S_0 L_2 ?x2001 ?x610) 0.0) $x151859)))
 (let (($x151860 (not $x151859)))
 (let ((?x1072 (* (- 3.0) L_2)))
 (let ((?x1120 (* 2.0 L_1)))
 (let ((?x1113 (* (- 2.0) A_1)))
 (let ((?x1124 (* 3.0 A_2)))
 (let ((?x17083 (+ ?x462 ?x1124 ?x1113 ?x1120 ?x1072 L_4 ?x1588)))
 (let (($x41925 (= ?x17083 0.0)))
 (let ((?x41311 (* (- 5.0) B)))
 (let ((?x2618 (* (- 5.0) L_3)))
 (let ((?x38308 (* (- 4.0) S_5)))
 (let ((?x2604 (* 5.0 A_3)))
 (let ((?x2887 (* (/ 3.0 2.0) B)))
 (let ((?x15080 (* (/ 3.0 2.0) L_4)))
 (let ((?x12527 (* (/ 1.0 2.0) S_2)))
 (let ((?x15084 (* (- (/ 3.0 2.0)) A_4)))
 (let (($x173903 (or $x86 (<= (+ ?x2579 (* 4.0 S_3) (* (- 1.0) S_1) ?x2540 ?x1604) 0.0))))
 (let (($x2207 (<= (+ A_1 ?x593 (* (- 1.0) S_2)) 0.0)))
 (let (($x176102 (or $x2207 (<= (+ (* (/ 1.0 5.0) S_5) (* (- 1.0) S_2) (* (/ 4.0 5.0) S_0)) 0.0))))
 (let ((?x554 (* (- 1.0) L_4)))
 (let ((?x20232 (* 2.0 S_0)))
 (let ((?x2461 (* (- 2.0) S_2)))
 (let (($x101149 (<= (+ ?x1708 ?x1924 A_2 ?x1925 (* (- 1.0) S_1) ?x580 ?x1882 B) 0.0)))
 (let (($x17107 (<= (+ ?x462 ?x953 (* (- 1.0) S_1) ?x1086 L_4 ?x610) 0.0)))
 (let (($x377014 (or $x66 (<= (+ (* (- 4.0) A_2) S_5 ?x17458 (* 4.0 L_2) ?x10029) 0.0))))
 (let ((?x2234 (* 2.0 L_0)))
 (let ((?x2925 (* 2.0 S_1)))
 (let ((?x2235 (* (- 2.0) A_0)))
 (let (($x59517 (<= (+ ?x24051 (* (- 1.0) A_0) (* (/ 4.0 3.0) S_1) ?x14337 ?x3719 L_0) 0.0)))
 (let (($x52380 (<= (+ ?x462 A_3 (* (- 1.0) A_0) ?x567 S_1 L_4 B L_0) 0.0)))
 (let (($x183749 (or $x86 $x52380 $x59517 (<= (+ ?x462 A_2 ?x2235 ?x580 ?x2925 L_4 B ?x2234) 0.0))))
 (let ((?x3662 (* (/ 4.0 3.0) B)))
 (let ((?x3665 (* (/ 1.0 3.0) S_0)))
 (let (($x376185 (or $x76 (<= (+ ?x1999 A_1 ?x593 (* 2.0 S_4) ?x2000 ?x1604) 0.0) (<= (+ (* (- (/ 4.0 3.0)) A_3) S_4 ?x3665 (* (/ 4.0 3.0) L_3) ?x3662) 0.0) $x6977)))
 (let (($x151233 (<= (+ ?x466 A_2 ?x580 L_3 B) (- 5.0))))
 (let (($x177613 (or $x76 (<= (+ (* (- (/ 1.0 3.0)) A_3) ?x3665 (* (/ 1.0 3.0) L_3) ?x3719) (- 5.0)) $x151233 (<= (+ ?x466 A_1 ?x593 L_3 B) (- 10.0)))))
 (let (($x8733 (not (<= (+ A_3 ?x1037 A_1 ?x567 ?x593 ?x1059 ?x1591) 0.0))))
 (let (($x149133 (<= (+ (* (- (/ 1.0 4.0)) A_4) ?x4564 (* (/ 1.0 4.0) L_4) (* (/ 1.0 4.0) B)) (- 5.0))))
 (let (($x365011 (or $x66 (<= (+ (* (- 3.0) A_2) S_4 ?x2925 (* 3.0 L_2) ?x1604) 0.0))))
 (let (($x110298 (<= (+ ?x462 (* (- (/ 1.0 3.0)) A_3) S_5 L_4 ?x3665 (* (/ 1.0 3.0) L_3) ?x3719) 0.0)))
 (let (($x371548 (or $x76 $x6963 (<= (+ ?x1708 ?x466 A_1 ?x2474 ?x1882 ?x593 L_3 B) 0.0) $x110298)))
 (let (($x35796 (<= (+ ?x466 A_2 (* (- 1.0) A_0) ?x580 S_1 L_3 B L_0) 0.0)))
 (let (($x375742 (or $x76 $x35796 (not (<= 0.0 (+ ?x470 (* (- 1.0) A_0) ?x2925 L_2 L_0))))))
 (let ((?x3713 (* (- (/ 1.0 3.0)) B)))
 (let ((?x12584 (* (- (/ 1.0 3.0)) L_1)))
 (let ((?x5533 (* (- (/ 1.0 3.0)) S_5)))
 (let ((?x12585 (* (/ 1.0 3.0) A_1)))
 (let (($x380536 (or $x1581 $x10446 (<= (+ ?x12585 ?x5533 ?x12584 ?x3713) (- 5.0)))))
 (let ((?x3591 (* (- (/ 1.0 2.0)) L_1)))
 (let ((?x11798 (* (- (/ 1.0 2.0)) S_4)))
 (let ((?x4286 (* (/ 1.0 2.0) A_1)))
 (let (($x143480 (or $x1585 $x33476 (<= (+ ?x462 S_5 L_4 (* (- (/ 1.0 3.0)) S_4) ?x3665) 0.0) (<= (+ ?x462 ?x4286 S_5 L_4 ?x11798 ?x3591) 0.0))))
 (let ((?x474 (* (- 1.0) A_1)))
 (let ((?x2318 (+ ?x1708 ?x1930 ?x474 L_1 ?x1931 ?x1882 ?x610)))
 (let (($x150638 (<= 0.0 ?x2318)))
 (let ((?x2636 (+ ?x462 ?x1924 ?x470 L_2 ?x1925 L_4 ?x610)))
 (let (($x149454 (<= 0.0 ?x2636)))
 (let ((?x2580 (* (- 3.0) L_4)))
 (let ((?x2612 (* 4.0 L_3)))
 (let ((?x2585 (* (- 4.0) A_3)))
 (let ((?x2610 (* 3.0 A_4)))
 (let (($x373952 (or $x86 (<= (+ ?x462 ?x1124 ?x2461 ?x1072 L_4 ?x1588) 0.0) (<= (+ ?x462 A_3 A_2 ?x567 (* (- 1.0) S_2) ?x580 L_4) 0.0))))
 (let (($x38137 (<= (+ ?x1930 (* (- 2.0) S_5) (* (- 1.0) S_2) ?x1931 (* (- 3.0) B)) 0.0)))
 (let ((?x2890 (* (- (/ 1.0 2.0)) B)))
 (let ((?x4943 (* (- (/ 1.0 2.0)) L_4)))
 (let ((?x3320 (* (- (/ 1.0 2.0)) L_2)))
 (let ((?x493 (* (- 1.0) S_4)))
 (let ((?x3424 (* (/ 1.0 2.0) A_2)))
 (let ((?x4940 (* (/ 1.0 2.0) A_4)))
 (let (($x26292 (<= (+ ?x4940 ?x3424 ?x493 ?x3320 ?x4943 ?x2890) 0.0)))
 (let (($x4941 (<= (+ (* (/ 3.0 4.0) A_4) ?x493 ?x4564 (* (- (/ 3.0 4.0)) L_4) (* (- (/ 3.0 4.0)) B)) 0.0)))
 (let (($x373251 (or $x1585 $x4941 (<= (+ ?x1598 A_1 ?x593 (* (- 3.0) S_4) ?x2001 ?x1588) 0.0) $x26292)))
 (let ((?x11275 (* (- 4.0) B)))
 (let ((?x2593 (* (- 4.0) L_3)))
 (let ((?x526 (* (- 1.0) S_1)))
 (let ((?x40612 (* (- 3.0) S_5)))
 (let ((?x2582 (* 4.0 A_3)))
 (let (($x32620 (<= (+ ?x2579 (* (- 1.0) A_0) (* 4.0 S_3) ?x2540 ?x1604 L_0) 0.0)))
 (let (($x172472 (or $x86 (<= (+ ?x1708 (* 3.0 S_3) (* (- 1.0) S_2) ?x1882 ?x1591) 0.0))))
 (let (($x158776 (<= 0.0 ?x17083)))
 (let (($x1933 (<= (+ ?x1708 ?x1930 ?x474 ?x1931 L_1 ?x1882 ?x1604) 0.0)))
 (let (($x56 (= L_1 L_0)))
 (let (($x368691 (or $x56 $x86 $x1933 (<= (+ ?x462 ?x1113 (* 3.0 S_2) ?x1120 L_4 ?x1604) 0.0))))
 (let (($x28660 (<= (+ ?x1924 (* (- 1.0) A_0) (* (- 2.0) S_5) ?x1925 S_2 L_0) 0.0)))
 (let (($x139002 (or $x1581 (<= (+ (* (- 1.0) A_0) ?x482 (* 2.0 S_2) L_0) 0.0) $x28660)))
 (let (($x138891 (or $x1581 (<= (+ A_3 ?x474 ?x482 ?x567 S_2 L_1) 0.0) (<= (+ (* (- (/ 2.0 3.0)) A_1) (* (/ 2.0 3.0) L_1) ?x5533 S_2) 0.0))))
 (let (($x152683 (<= 0.0 (+ ?x470 (* (/ 2.0 3.0) A_1) (* (- (/ 2.0 3.0)) L_1) (* (/ 1.0 3.0) S_5) L_2))))
 (let (($x137836 (or $x1581 (<= (+ (* (- (/ 3.0 2.0)) S_5) (* (/ 5.0 2.0) S_2) ?x1192) 0.0) (<= (+ ?x1930 ?x40612 ?x1931 S_2 ?x1192) 0.0))))
 (let ((?x31250 (* (- (/ 5.0 2.0)) B)))
 (let ((?x26403 (* (- (/ 5.0 2.0)) L_2)))
 (let ((?x13915 (* (- (/ 3.0 2.0)) S_5)))
 (let ((?x15056 (* (/ 5.0 2.0) A_2)))
 (let (($x191603 (or $x1581 (<= (+ ?x15056 ?x13915 ?x1192 ?x26403 ?x31250) 0.0) (<= (+ ?x1930 A_2 ?x40612 ?x1931 ?x1192 ?x580 ?x610) 0.0))))
 (let (($x39853 (<= (+ ?x1124 ?x1113 ?x1120 ?x482 ?x1072 (* (- 3.0) B)) 0.0)))
 (let (($x373647 (or $x1581 $x39853 (<= (+ A_3 A_2 ?x474 ?x482 ?x567 L_1 ?x580 ?x610) 0.0))))
 (let (($x370361 (or $x66 (<= (+ ?x466 ?x470 S_5 L_3 S_0 L_2 B) 0.0) (<= (+ ?x466 ?x1037 ?x1027 S_5 L_3 ?x1064 ?x1059 ?x1591) 0.0))))
 (let (($x101179 (<= (+ ?x1708 ?x1924 A_2 (* (- 1.0) A_0) ?x1925 ?x580 ?x1882 B L_0) 0.0)))
 (let (($x17118 (<= (+ ?x462 ?x953 (* (- 1.0) A_0) ?x1086 L_4 ?x610 L_0) 0.0)))
 (let ((?x1718 (* (- 3.0) B)))
 (let ((?x9561 (* (- 4.0) L_1)))
 (let ((?x6664 (* 4.0 A_1)))
 (let (($x40380 (<= (+ ?x462 ?x6664 (* (- 3.0) A_0) ?x9561 L_4 ?x1718 (* 3.0 L_0)) 0.0)))
 (let (($x20252 (<= (+ ?x462 A_2 ?x1027 ?x2235 L_4 ?x580 ?x1064 ?x610 ?x2234) 0.0)))
 (let (($x1942 (<= (+ ?x462 A_3 A_1 (* (- 1.0) A_0) ?x567 ?x593 L_4 L_0) 0.0)))
 (let (($x23248 (<= (+ A_2 ?x493 ?x580) (- 5.0))))
 (let (($x171622 (or $x1585 $x23248 (<= (+ (* (- (/ 1.0 3.0)) S_4) ?x3665) (- 5.0)) (<= (+ ?x4286 ?x3591 ?x11798) (- 5.0)))))
 (let (($x171413 (or $x86 (<= (+ ?x462 ?x470 L_4 L_2 (* 2.0 S_3) B) 0.0))))
 (let (($x59372 (<= (+ ?x953 S_5 ?x1086 (* (- 3.0) S_4)) 0.0)))
 (let (($x376025 (or $x1585 (<= (+ S_5 (* (- (/ 5.0 3.0)) S_4) ?x3694) 0.0) (<= (+ A_1 ?x593 S_5 (* (- 2.0) S_4)) 0.0) $x59372)))
 (let (($x171269 (or $x76 (<= (+ ?x466 ?x2925 ?x1192 L_3 B) 0.0) (<= (+ ?x2295 ?x953 ?x1086 S_1 ?x1192 ?x2264 ?x1591) 0.0))))
 (let (($x17122 (<= (+ A_4 (* (- 3.0) A_2) ?x2925 (* 3.0 L_2) ?x554 ?x1591) 0.0)))
 (let (($x170930 (or $x86 $x1877 (<= (+ (* (- (/ 4.0 3.0)) A_4) S_5 ?x5529 (* (/ 4.0 3.0) L_4) ?x3662) 0.0) $x63853)))
 (let (($x369832 (or $x86 (<= (+ ?x1708 ?x1924 ?x1925 S_2 ?x526 ?x1882 ?x1591) 0.0) (<= (+ ?x462 (* 2.0 S_2) ?x526 L_4 B) 0.0))))
 (let (($x128009 (or $x1585 (<= (+ ?x493 ?x2925 ?x1192) 0.0) (<= (+ ?x953 (* (- 2.0) S_4) ?x1086 S_1 ?x1192) 0.0))))
 (let (($x377748 (or (<= (+ ?x462 S_5 L_4 (* (- (/ 1.0 2.0)) S_3) ?x3421) 0.0) $x3369 $x15735)))
 (let (($x377561 (or $x3369 (<= (+ (* (/ 1.0 2.0) S_4) (* (- 1.0) S_3) ?x3421) 0.0) $x153680)))
 (let (($x376618 (or $x86 $x149734 (<= (+ (* (- (/ 1.0 2.0)) A_4) ?x12527 (* (/ 1.0 2.0) L_4) ?x2879) (- 5.0)))))
 (let (($x10037 (<= (+ A_4 ?x466 A_1 ?x554 L_3 (* (- 1.0) S_3) ?x593 ?x610) 0.0)))
 (let (($x377147 (or $x3369 $x10037 (<= (+ ?x1598 ?x2295 ?x2264 (* (- 1.0) S_3) S_0 ?x2001 ?x1588) 0.0))))
 (let (($x123216 (or $x3369 (<= (+ ?x466 L_3 S_4 (* (- (/ 1.0 2.0)) S_3) ?x3421) 0.0) (<= (+ ?x466 A_1 S_4 L_3 (* (- 1.0) S_3) ?x593) 0.0))))
 (let ((?x1202 (* 3.0 L_1)))
 (let ((?x22602 (* 3.0 S_0)))
 (let ((?x1201 (* (- 3.0) A_1)))
 (let (($x170146 (or $x86 (<= (+ ?x462 ?x1113 ?x1120 (* 3.0 S_2) L_4 B) 0.0) (<= (+ ?x462 A_3 ?x474 L_4 ?x567 S_2 L_1 B) 0.0))))
 (let (($x62188 (<= (+ ?x462 (* (- 1.0) A_0) (* 2.0 S_2) L_4 B L_0) 0.0)))
 (let (($x31503 (<= (+ ?x1708 ?x1924 (* (- 1.0) A_0) ?x1925 S_2 ?x1882 ?x1591 L_0) 0.0)))
 (let (($x170110 (or $x56 $x86 (<= (+ ?x1708 ?x474 (* 3.0 S_3) L_1 ?x1882 ?x1604) 0.0))))
 (let (($x1276 (not $x66)))
 (let (($x42989 (<= (+ ?x462 ?x6664 (* (- 3.0) S_1) ?x9561 L_4 ?x1718) 0.0)))
 (let (($x20082 (<= (+ ?x462 A_2 ?x1027 L_4 ?x580 (* (- 2.0) S_1) ?x1064 ?x610) 0.0)))
 (let ((?x3838 (* (- (/ 5.0 3.0)) B)))
 (let ((?x12605 (* (- (/ 5.0 3.0)) L_1)))
 (let ((?x5526 (* (- (/ 2.0 3.0)) S_5)))
 (let ((?x12604 (* (/ 5.0 3.0) A_1)))
 (let (($x369682 (or $x1581 (<= (+ ?x12604 ?x5526 ?x1192 ?x12605 ?x3838) 0.0) (<= (+ ?x1924 A_1 (* (- 2.0) S_5) ?x1925 ?x1192 ?x593 ?x610) 0.0) (<= (+ A_2 A_1 ?x482 ?x580 ?x1192 ?x593 ?x610) 0.0))))
 (let (($x122256 (or $x56 $x1581 (<= (+ (* (- (/ 2.0 3.0)) A_1) ?x5533 S_2 (* (/ 2.0 3.0) L_1) ?x3708) 0.0) (<= (+ A_3 ?x474 ?x482 ?x567 S_2 L_1 B) 0.0))))
 (let (($x121999 (or $x1585 (<= (+ (* (- 1.0) A_0) ?x11798 (* (/ 3.0 2.0) S_1) L_0) 0.0) (<= (+ A_2 (* (- 1.0) A_0) ?x493 ?x580 S_1 L_0) 0.0))))
 (let (($x155911 (<= 0.0 (+ ?x466 ?x3424 (* (/ 1.0 2.0) S_5) ?x3320 L_3))))
 (let ((?x4953 (* (- (/ 1.0 4.0)) B)))
 (let ((?x4964 (* (- (/ 1.0 4.0)) L_4)))
 (let ((?x4555 (* (/ 3.0 4.0) S_0)))
 (let ((?x4951 (* (/ 1.0 4.0) A_4)))
 (let (($x177894 (or $x1585 $x26292 (<= (+ ?x1598 A_1 (* (- 3.0) S_4) ?x593 ?x2001 ?x1718) 0.0))))
 (let ((?x41942 (* (- (/ 1.0 3.0)) L_0)))
 (let ((?x13703 (* (- (/ 2.0 3.0)) L_4)))
 (let ((?x18364 (* (/ 2.0 3.0) A_4)))
 (let (($x1496 (not $x56)))
 (let (($x168871 (or $x86 (<= (+ ?x2579 ?x1930 ?x1931 S_2 ?x1192 ?x2540 ?x1604) 0.0) (<= (+ ?x15084 (* (/ 5.0 2.0) S_2) ?x1192 ?x15080 ?x2887) 0.0))))
 (let (($x367283 (or $x56 $x86 (not $x1933) (<= (+ ?x462 A_3 ?x474 ?x567 S_2 L_1 L_4 ?x1591) 0.0))))
 (let ((?x11568 (* (- 5.0) L_1)))
 (let ((?x11569 (* (- 3.0) S_0)))
 (let ((?x11567 (* 5.0 A_1)))
 (let (($x373492 (or $x86 (<= (+ ?x1708 ?x1924 A_1 ?x1925 ?x1192 ?x593 ?x1882 B) 0.0) (<= (+ ?x462 A_2 A_1 L_4 ?x580 ?x1192 ?x593) 0.0) (<= (+ ?x1708 ?x11567 ?x11569 ?x11568 ?x1882 ?x1718) 0.0))))
 (let (($x365797 (or $x86 (<= (+ ?x462 A_3 A_1 ?x567 ?x526 ?x593 L_4) 0.0) (not (<= (+ ?x462 ?x1924 ?x470 ?x1925 L_2 L_4 B) 0.0)) $x42989)))
 (let (($x118559 (or $x56 $x1581 (<= (+ (* (- (/ 1.0 3.0)) A_1) ?x5526 S_3 (* (/ 1.0 3.0) L_1) ?x3719) 0.0))))
 (let (($x366200 (or $x1581 (<= (+ ?x953 ?x482 ?x526 ?x1086 ?x1588) 0.0) (<= (+ ?x1924 A_2 (* (- 2.0) S_5) ?x1925 ?x526 ?x580 ?x610) 0.0))))
 (let (($x370144 (or $x3369 (<= (+ A_4 ?x466 L_3 (* (- 1.0) S_3) S_1 ?x554 ?x610) 0.0))))
 (let (($x370778 (or $x3369 (<= (+ (* (/ 1.0 4.0) S_5) (* (- 1.0) S_3) (* (/ 3.0 4.0) S_1)) 0.0))))
 (let (($x153695 (not $x153680)))
 (let (($x38573 (<= (+ (* (- 3.0) A_2) ?x1027 ?x1064 S_4 (* 3.0 L_2) ?x1604) 0.0)))
 (let (($x179633 (or $x1581 (<= (+ ?x3424 (* (- (/ 1.0 2.0)) S_5) ?x3320 ?x2890) (- 5.0)))))
 (let ((?x14331 (* (- (/ 1.0 3.0)) L_4)))
 (let ((?x5191 (* (/ 2.0 3.0) S_1)))
 (let ((?x504 (* (- 1.0) S_3)))
 (let ((?x22372 (* (/ 1.0 3.0) A_4)))
 (let (($x114825 (or $x1585 (<= (+ (* (- (/ 1.0 2.0)) A_1) (* (/ 1.0 2.0) L_1) ?x11798 S_2) 0.0))))
 (let ((?x4551 (* (- (/ 1.0 2.0)) S_5)))
 (let ((?x1223 (* (- 1.0) A_0)))
 (let ((?x3674 (* (- (/ 4.0 3.0)) B)))
 (let ((?x12550 (* (- (/ 4.0 3.0)) L_1)))
 (let ((?x12573 (* (/ 4.0 3.0) A_1)))
 (let (($x367246 (or $x1581 (<= (+ ?x12573 ?x1223 ?x5533 ?x12550 ?x3674 L_0) 0.0) (<= (+ A_3 A_1 ?x1223 ?x482 ?x567 ?x593 ?x610 L_0) 0.0) (<= (+ ?x3424 A_1 ?x1223 ?x4551 ?x3320 ?x593 ?x610 L_0) 0.0))))
 (let (($x167325 (or $x66 (<= (+ ?x462 ?x470 A_1 S_5 L_4 ?x593 L_2 B) 0.0) (<= (+ ?x462 ?x2802 S_5 L_4 ?x3421 ?x3287 ?x2879) 0.0))))
 (let (($x375649 (or $x1581 (<= (+ ?x1223 ?x5533 (* (/ 4.0 3.0) S_1) L_0) 0.0) (<= (+ ?x3424 ?x1223 ?x4551 ?x3320 S_1 L_0) 0.0) (<= (+ A_3 ?x1223 ?x482 ?x567 S_1 L_0) 0.0))))
 (let (($x13132 (<= (+ ?x12573 ?x5533 ?x526 ?x12550 ?x3674) 0.0)))
 (let (($x368663 (or $x1581 $x13132 (<= (+ ?x3424 A_1 ?x4551 ?x3320 ?x526 ?x593 ?x610) 0.0) $x155911)))
 (let (($x374970 (or $x1581 (<= (+ ?x1930 ?x474 L_1 (* (- 2.0) S_5) ?x1931 ?x1718) 0.0))))
 (let (($x145054 (not (<= 0.0 (+ L_2 ?x567)))))
 (let (($x372166 (or $x1585 (<= (+ A_1 S_5 (* (- 2.0) S_4) ?x593 ?x610) 0.0) $x59372)))
 (let (($x368016 (or $x1581 $x13132 $x14123 (<= (+ A_3 A_1 ?x482 ?x567 ?x526 ?x593 ?x610) 0.0))))
 (let (($x166712 (or $x66 (<= (+ ?x1037 A_1 S_3 ?x593 ?x1059 ?x1591) 0.0) (<= (+ (* (- (/ 3.0 2.0)) A_2) S_3 ?x3421 (* (/ 3.0 2.0) L_2) ?x2887) 0.0))))
 (let ((?x19783 (* (/ 3.0 2.0) S_0)))
 (let (($x45580 (<= (+ (* (- (/ 5.0 2.0)) A_2) S_5 ?x19783 (* (/ 5.0 2.0) L_2) (* (/ 5.0 2.0) B)) 0.0)))
 (let ((?x1089 (* 4.0 L_2)))
 (let ((?x1140 (* (- 3.0) L_1)))
 (let ((?x1093 (* 3.0 A_1)))
 (let ((?x1145 (* (- 4.0) A_2)))
 (let (($x176171 (or $x56 $x1581 (<= (+ ?x1930 ?x474 (* (- 2.0) S_5) L_1 ?x1931 ?x1588) 0.0))))
 (let (($x378524 (or $x66 (<= (+ ?x470 A_1 ?x593 L_2 B) (- 5.0)) (<= (+ ?x2802 ?x3421 ?x3287 ?x2879) (- 5.0)))))
 (let (($x106055 (or $x3369 (<= (+ ?x1093 ?x1140 S_5 (* (- 4.0) S_3)) 0.0) (<= (+ S_5 (* (- (/ 5.0 2.0)) S_3) ?x19783) 0.0))))
 (let (($x150892 (not (<= 0.0 (+ A_4 ?x466 ?x470 A_1 L_3 ?x593 L_2 ?x554 ?x1588)))))
 (let (($x22068 (not (<= (+ ?x4940 ?x466 ?x3424 ?x3320 L_3 ?x4943 ?x2890) 0.0))))
 (let (($x97344 (or $x1585 (<= (+ ?x1223 (* (- 2.0) S_4) (* 3.0 S_2) L_0) 0.0))))
 (let (($x57668 (<= (+ ?x1924 A_2 ?x1223 (* (- 2.0) S_5) ?x1925 ?x580 ?x610 L_0) 0.0)))
 (let (($x368232 (or $x1585 (<= (+ A_4 A_2 (* (- 2.0) S_4) ?x580 ?x554 ?x1588) 0.0))))
 (let (($x366034 (or $x3369 (<= (+ ?x4940 ?x504 ?x3421 ?x4943 ?x2890) 0.0) (<= (+ A_4 ?x1027 ?x1064 (* (- 3.0) S_3) ?x554 ?x610) 0.0))))
 (let (($x97384 (or $x1581 (<= (+ (* (- 2.0) S_5) (* 3.0 S_3) (* (- 1.0) S_2)) 0.0))))
 (let (($x43935 (<= (+ A_4 (* (- 4.0) A_1) ?x22602 (* 4.0 L_1) ?x554 ?x1604) 0.0)))
 (let (($x183198 (or $x2207 (<= (+ A_3 ?x470 L_2 (* (- 1.0) S_2) S_0 ?x567 ?x610) 0.0))))
 (let (($x379648 (or $x3369 (<= (+ A_4 ?x1027 (* (- 3.0) S_3) ?x1064 ?x554 ?x1718) 0.0))))
 (let (($x33858 (<= (+ A_4 ?x4286 (* (- (/ 3.0 2.0)) S_4) ?x3591 ?x567 (* (- (/ 3.0 2.0)) B)) 0.0)))
 (let (($x1992 (not $x86)))
 (let (($x159568 (<= 0.0 (+ ?x470 ?x1223 ?x2925 L_2 L_0))))
 (let (($x163949 (or $x76 (<= (+ ?x2880 ?x1223 (* (/ 3.0 2.0) S_1) ?x2907 ?x2879 L_0) 0.0) $x159568)))
 (let (($x151829 (<= 0.0 (+ A_4 (* (- (/ 3.0 2.0)) A_3) ?x4286 ?x554 ?x3591 (* (/ 3.0 2.0) L_3)))))
 (let (($x380451 (or $x76 (<= (+ ?x466 ?x1027 ?x1192 ?x1064 L_3 ?x610) 0.0) (<= (+ ?x2295 ?x953 A_1 ?x1086 ?x1192 ?x593 ?x2264 B) 0.0))))
 (let (($x178750 (or $x76 (<= (+ ?x466 ?x1093 (* (- 2.0) S_1) ?x1140 L_3 ?x1588) 0.0) (<= (+ ?x466 A_2 A_1 ?x580 ?x526 ?x593 L_3) 0.0))))
 (let (($x373753 (or $x1585 (<= (+ ?x4286 ?x11798 ?x3591 ?x2890) (- 5.0)))))
 (let ((?x2908 (* (- (/ 3.0 2.0)) B)))
 (let ((?x4234 (* (- (/ 3.0 2.0)) L_1)))
 (let ((?x3906 (* (/ 3.0 2.0) A_1)))
 (let (($x178538 (or $x1585 (<= (+ ?x3906 ?x1223 ?x11798 ?x4234 ?x2908 L_0) 0.0) (<= (+ A_2 A_1 ?x1223 ?x493 ?x580 ?x593 ?x610 L_0) 0.0))))
 (let (($x161441 (or $x56 $x76 (<= (+ ?x466 ?x474 (* 2.0 S_2) L_1 L_3 ?x1591) 0.0))))
 (let (($x154466 (<= 0.0 (+ A_4 ?x466 ?x470 A_1 ?x554 L_3 ?x593 L_2 ?x610))))
 (let ((?x1196 (+ ?x466 ?x953 ?x474 L_1 ?x1086 L_3 ?x610)))
 (let (($x394 (<= 0.0 ?x1196)))
 (let (($x392 (not $x394)))
 (let (($x378323 (or $x56 $x392 $x1581 (<= 0.0 (+ ?x466 ?x470 A_1 S_5 L_3 ?x593 L_2)))))
 (let (($x365857 (or $x86 (<= (+ ?x462 A_3 A_2 ?x474 L_4 ?x567 L_1 ?x580) 0.0) $x41925 (not $x158776))))
 (let (($x176863 (or $x86 (<= (+ ?x462 A_3 A_1 ?x1223 L_4 ?x567 ?x593 B L_0) 0.0) $x17118 $x151860)))
 (let (($x432 (<= 0.0 (+ ?x593 L_0))))
 (let (($x14834 (<= (+ (* (/ 3.0 2.0) A_2) ?x4551 (* (- 1.0) S_2) (* (- (/ 3.0 2.0)) L_2) ?x2908) 0.0)))
 (let (($x190238 (or $x1581 $x14834 (<= (+ A_3 A_2 ?x482 ?x567 (* (- 1.0) S_2) ?x580 ?x610) 0.0))))
 (let (($x191269 (or $x1585 (<= (+ ?x3906 ?x11798 ?x526 ?x4234 ?x2908) 0.0) (<= (+ A_2 A_1 ?x493 ?x580 ?x526 ?x593 ?x610) 0.0))))
 (let (($x178219 (or $x1585 (<= (+ ?x1027 ?x493 ?x1192 ?x1064 ?x1588) 0.0) (<= (+ ?x953 A_1 (* (- 2.0) S_4) ?x1086 ?x1192 ?x593 ?x610) 0.0))))
 (let (($x12599 (<= (+ A_3 (* (- (/ 1.0 3.0)) A_1) (* (/ 1.0 3.0) L_1) ?x5526 ?x580 ?x610) 0.0)))
 (let (($x58614 (or $x1581 (<= (+ (* (- (/ 1.0 3.0)) A_1) (* (/ 1.0 3.0) L_1) ?x5526 S_3) 0.0))))
 (let (($x41703 (<= (+ A_3 ?x482 ?x567 ?x610) (- 5.0))))
 (let (($x188029 (or $x56 (<= (+ (* (- 4.0) A_1) S_4 ?x22602 (* 4.0 L_1) ?x10029) 0.0))))
 (let ((?x38639 (+ (* (- 5.0) A_1) S_5 (* 4.0 S_0) (* 5.0 L_1) (* 5.0 B))))
 (let (($x369520 (or $x66 (= (+ ?x462 A_3 A_2 ?x474 ?x567 L_1 ?x580 L_4 B) 0.0) (not $x154466))))
 (let (($x28858 (<= (+ A_1 ?x504 ?x593 ?x610) (- 5.0))))
 (let (($x186246 (or $x2207 (<= (+ A_4 ?x466 L_3 (* (- 1.0) S_2) S_0 ?x554 ?x610) 0.0))))
 (let (($x450 (not (<= 0.0 (+ L_1 ?x580)))))
 (let (($x3683 (<= (+ (* (/ 2.0 3.0) A_3) ?x504 ?x3665 (* (- (/ 2.0 3.0)) L_3) (* (- (/ 2.0 3.0)) B)) 0.0)))
 (let (($x186693 (or $x76 (<= (+ ?x466 ?x1093 ?x2235 ?x1140 L_3 ?x1588 ?x2234) 0.0) (<= (+ ?x466 A_2 A_1 ?x1223 ?x580 ?x593 L_3 L_0) 0.0))))
 (let (($x153003 (or $x76 $x6977 (<= (+ ?x1999 A_1 (* 2.0 S_4) ?x593 ?x2000 ?x1591) 0.0))))
 (let (($x156853 (or $x76 (<= (+ ?x466 ?x474 L_1 (* 2.0 S_2) L_3 B) 0.0))))
 (let (($x44633 (or $x56 $x1585 (<= (+ (* (- (/ 1.0 2.0)) A_1) ?x11798 S_2 (* (/ 1.0 2.0) L_1) ?x2879) 0.0))))
 (let (($x16631 (<= (+ ?x22372 ?x470 (* (/ 2.0 3.0) A_1) (* (- (/ 2.0 3.0)) L_1) L_2 ?x14331) 0.0)))
 (let (($x26385 (<= (+ A_2 ?x493 ?x580 ?x610) (- 5.0))))
 (let (($x370014 (or $x450 $x1585 (<= (+ A_2 (* (- (/ 1.0 2.0)) A_1) ?x3591 ?x11798 ?x610) 0.0))))
 (let (($x1070 (<= (+ (* (- 3.0) A_2) ?x1027 S_4 ?x1064 (* 3.0 L_2) B) 0.0)))
 (let (($x10325 (<= (+ A_1 ?x504 ?x593) (- 5.0))))
 (let (($x3715 (<= (+ (* (/ 1.0 3.0) A_3) (* (- 1.0) S_2) ?x3694 (* (- (/ 1.0 3.0)) L_3) ?x3713) 0.0)))
 (let (($x154168 (or $x76 (<= (+ ?x2295 ?x1223 (* 3.0 S_2) ?x2264 ?x1591 L_0) 0.0))))
 (let (($x177610 (or $x76 (<= (+ ?x466 ?x953 (* (- 1.0) S_2) ?x1086 L_3 ?x610) 0.0))))
 (let (($x154122 (or $x86 (<= (+ ?x1708 ?x474 L_1 (* 3.0 S_3) ?x1882 ?x1591) 0.0))))
 (let (($x26325 (<= (+ (* 4.0 A_2) (* (- 3.0) S_4) ?x1192 (* (- 4.0) L_2) ?x11275) 0.0)))
 (let (($x177330 (or $x1585 (<= (+ ?x1124 ?x1223 (* (- 2.0) S_4) ?x1072 ?x1718 L_0) 0.0))))
 (let (($x154091 (or $x66 $x86 (<= (+ ?x462 ?x470 (* 2.0 S_3) L_2 L_4 ?x1591) 0.0))))
 (let (($x20441 (<= (+ ?x1999 (* 4.0 A_2) ?x1192 (* (- 4.0) L_2) ?x2000 ?x610) 0.0)))
 (let (($x20442 (<= (+ ?x1924 (* (- 3.0) A_2) S_0 (* 3.0 L_2) ?x1925 B) 0.0)))
 (let (($x185346 (or (<= (+ (* (/ 1.0 2.0) A_3) ?x504 ?x2885 (* (- (/ 1.0 2.0)) L_3) ?x2890) 0.0) $x3369)))
 (let (($x4307 (<= (+ (* (/ 1.0 2.0) A_3) ?x470 ?x4286 ?x3591 L_2 (* (- (/ 1.0 2.0)) L_3)) 0.0)))
 (let (($x179707 (or (<= (+ A_4 ?x466 A_1 L_3 ?x504 ?x593 ?x554 ?x1588) 0.0) $x3369)))
 (let (($x2254 (<= (+ A_3 ?x493 ?x567 ?x610) 0.0)))
 (let (($x1871 (<= (+ A_4 ?x482 ?x554 ?x610) 0.0)))
 (let (($x1183 (<= (+ A_1 (* (- 1.0) S_2) ?x593 ?x610) 0.0)))
 (let (($x1177 (<= (+ A_2 ?x504 ?x580 ?x610) 0.0)))
 (let (($x128 (>= S_1 S_0)))
 (let (($x131 (>= S_2 S_1)))
 (let (($x134 (>= S_3 S_2)))
 (let (($x137 (>= S_4 S_3)))
 (let (($x140 (>= S_5 S_4)))
 (let (($x142 (>= A_1 A_0)))
 (let (($x143 (>= A_2 A_1)))
 (let (($x144 (>= A_3 A_2)))
 (let (($x145 (>= A_4 A_3)))
 (let (($x146 (>= A_5 A_4)))
 (and $x146 $x145 $x144 $x143 $x142 $x140 $x137 $x134 $x131 $x128 (or (not $x432) $x56) $x1177 $x1183 (or $x66 (<= (+ ?x470 ?x1027 ?x526 ?x1064 L_2 ?x610) 0.0)) (or $x86 (<= (+ ?x462 S_4 L_4 B) 0.0)) (or $x86 (not (<= 0.0 (+ L_3 ?x554)))) $x1871 (or $x56 (<= (+ ?x474 S_1 L_1 B) 0.0)) (or $x66 (<= (+ ?x470 S_2 L_2 B) 0.0)) (or $x76 (<= (+ ?x466 S_3 L_3 B) 0.0)) $x2254 (or $x86 (<= (+ ?x462 A_3 ?x567 L_4) (- 5.0))) (or $x66 $x450) (or $x76 (<= (+ ?x466 S_2 L_3 B) (- 5.0))) (or $x1496 (<= (+ A_1 ?x504 ?x610 (* (- 1.0) L_0)) (- 5.0))) (or $x66 $x396) (or $x76 (<= (+ ?x2295 S_4 S_2 ?x2264 ?x1591) 0.0)) (or $x76 (<= (+ A_4 ?x2295 S_2 ?x2264 ?x554 B) 0.0)) (or $x86 (<= (+ ?x1708 A_3 S_5 ?x567 ?x1882 B) 0.0)) (or $x76 (<= (+ ?x1999 S_5 (* 2.0 S_2) ?x2000 ?x1604) 0.0)) (or $x76 $x145054) (or $x86 (<= (+ ?x462 ?x1924 ?x504 ?x1925 L_4 ?x610) 0.0)) (<= (+ (* (- 1.0) A_5) S_5 L_4) 0.0) $x179707 (or $x56 (<= (+ A_4 ?x466 ?x474 L_3 S_0 L_1 ?x554) 0.0)) (or $x56 (<= (+ ?x474 S_0 L_1 B) (- 5.0))) (or $x56 $x392 $x1585) (or $x2207 (<= (+ ?x4951 (* (- 1.0) S_2) ?x4555 ?x4964 ?x4953) 0.0)) (or $x66 $x4307) (or $x66 (<= (+ ?x1037 A_1 S_3 ?x593 ?x1059 B) 0.0)) (or $x66 (<= (+ ?x1037 ?x1093 ?x1192 ?x1140 ?x1059 ?x610) 0.0)) (or $x86 $x1877 (<= (+ ?x2579 A_2 ?x2474 ?x580 ?x2540 ?x1591) 0.0)) $x185346 (or $x2207 (<= (+ (* (/ 1.0 4.0) S_4) (* (- 1.0) S_2) ?x4555) 0.0)) (or $x56 (<= (+ A_2 ?x1113 S_0 ?x1120 ?x580 B) 0.0)) (or $x66 $x394 $x20442) (or $x56 (<= (+ ?x953 ?x474 ?x493 L_1 ?x1086 ?x610) 0.0) $x1585) (or $x2207 (<= (+ ?x3424 (* (- 1.0) S_2) ?x3421 ?x3320 ?x2890) 0.0)) (or $x66 (<= (+ A_3 ?x1037 S_1 ?x1059 ?x567 B) 0.0)) (or $x66 (<= (+ ?x1037 ?x17458 ?x1192 ?x1059 ?x1591) 0.0)) (or $x56 $x76 (<= 0.0 (+ A_3 ?x1037 A_1 ?x567 ?x593 ?x1059))) (or $x76 $x20441) (or $x66 (<= (+ ?x470 ?x1027 ?x1223 ?x1064 L_2 ?x610 L_0) 0.0)) $x154091 (or $x66 (<= (+ ?x470 ?x1223 ?x2925 L_2 B L_0) 0.0)) $x177330 (or $x1585 $x26325) $x154122 (or $x76 (<= (+ ?x2295 ?x1124 ?x1223 ?x1072 ?x2264 ?x610 L_0) 0.0)) $x177610 (or $x76 (<= (+ ?x2295 ?x1124 ?x526 ?x1072 ?x2264 ?x610) 0.0)) $x154168 (or $x1496 $x3369 (<= (+ ?x1027 ?x504 ?x526 ?x1588 (* (- 2.0) L_0)) 0.0)) (or $x2207 $x3715) (or $x76 (<= (+ ?x466 A_2 ?x580 L_3) (- 5.0))) (or $x3369 $x10325 (<= (+ (* (- (/ 1.0 2.0)) S_3) ?x3421) (- 5.0))) (or $x3369 (<= (+ ?x1027 ?x1223 ?x504 ?x1064 ?x1588 L_0) 0.0)) (or $x1585 (<= (+ ?x462 A_2 S_5 L_4 ?x493 ?x580 ?x610) 0.0)) (or $x56 (<= (+ ?x1113 S_2 S_0 ?x1120 ?x1591) 0.0)) (or $x1585 (<= (+ ?x462 S_5 L_4 ?x493 S_2) 0.0)) (or $x66 (<= (+ ?x462 ?x470 A_1 S_5 L_4 ?x593 L_2) 0.0)) (or $x66 $x1070) (or $x1581 (<= (+ ?x2802 ?x4551 ?x3287 S_3) 0.0)) (or $x1581 (<= (+ A_3 ?x2802 ?x4551 ?x3320 ?x610) 0.0) $x145054) (or $x1581 (<= (+ ?x1924 ?x470 ?x482 L_2 ?x1925 ?x1588) 0.0)) (or $x3369 (<= (+ ?x1093 ?x2208 ?x1192 ?x1140 ?x1718) 0.0)) (or $x3369 (<= (+ A_3 A_1 ?x2208 ?x593 ?x567 ?x1588) 0.0)) $x370014 (or $x1585 (<= (+ ?x953 ?x493 (* (- 1.0) S_2) ?x1086 ?x1588) 0.0)) $x26385 (or $x56 (<= (+ A_3 ?x470 ?x474 L_2 S_0 L_1 ?x567) 0.0)) (or $x86 (<= (+ ?x1708 ?x1930 ?x474 L_1 ?x1072 ?x1882 ?x610) 0.0) $x145054) (or $x66 $x1581 (<= (+ ?x1924 ?x470 ?x482 L_2 ?x1925 ?x610) 0.0)) (or $x66 $x86 (<= 0.0 (+ A_4 ?x2295 A_2 ?x554 ?x580 ?x2264))) (or $x86 (<= (+ ?x1708 ?x1930 (* (- 1.0) S_2) ?x1931 ?x1882 ?x610) 0.0)) (or $x3369 (<= (+ ?x462 A_1 S_5 L_4 ?x504 ?x593 ?x610) 0.0)) (or $x66 $x16631) (or $x56 (<= (+ ?x462 ?x474 S_5 L_4 S_0 L_1 B) 0.0)) (or $x1585 (<= (+ ?x493 S_2) (- 5.0))) (or $x1585 (<= (+ (* (/ 1.0 3.0) S_5) ?x493 (* (/ 2.0 3.0) S_2)) 0.0)) $x44633 (or $x3369 (<= (+ ?x1027 ?x504 ?x526 ?x1064 ?x1588) 0.0)) (or $x56 (<= (+ ?x466 ?x1113 S_5 L_3 ?x20232 ?x1120 ?x1591) 0.0)) $x156853 (or $x76 (<= (+ ?x2295 (* 3.0 S_2) ?x526 ?x2264 ?x1591) 0.0)) $x153003 $x186693 (or $x76 (<= (+ ?x1598 ?x1999 S_1 ?x2000 ?x2001 B) 0.0) $x149454) (or $x86 (<= (+ ?x2579 ?x2582 ?x1223 ?x2593 ?x2540 ?x610 L_0) 0.0)) (or $x2207 (<= (+ ?x466 L_3 S_4 (* (- 1.0) S_2) S_0) 0.0)) (or $x66 $x1992 (<= (+ A_4 ?x466 ?x2802 ?x3421 ?x3287 ?x2890) 0.0) $x151859) (or $x76 (<= (+ ?x4940 ?x466 ?x3424 ?x3320 L_3 ?x4943) 0.0)) (or $x86 (<= (+ ?x1708 S_5 S_3 ?x1882 ?x1591) 0.0)) (or (<= (+ A_3 A_1 ?x593 ?x2208 ?x567 ?x610) 0.0) $x3369 $x3683) (or $x450 $x1585 (<= (+ ?x4940 ?x3424 ?x493 ?x3591 ?x4943 ?x610) 0.0)) (or $x3369 (<= (+ ?x466 ?x1027 S_5 L_3 ?x2208 ?x1064 ?x1588) 0.0)) (or $x66 (<= (+ ?x470 S_1 L_2 B) (- 5.0))) (or $x1585 $x23248 (<= (+ ?x11798 ?x2885) (- 5.0))) $x186246 $x28858 $x369520 (or $x56 (<= ?x38639 0.0)) $x188029 (or $x3369 (<= (+ ?x1027 S_4 (* (- 3.0) S_3) ?x1064 ?x1588) 0.0)) (or $x1585 (<= (+ ?x953 S_5 (* (- 3.0) S_4) ?x1086 ?x1588) 0.0)) (or $x3369 (<= (+ ?x1027 ?x1064 S_4 (* (- 3.0) S_3)) 0.0) $x153695) (or $x394 $x432 (<= (+ ?x1124 ?x1113 ?x482 ?x1120 ?x1072 ?x610) 0.0) $x1581) (or $x66 (<= (+ ?x1145 ?x1093 S_5 ?x1140 ?x1089 B) 0.0)) $x41703 $x58614 (or $x1581 $x12599 $x145054) (or $x66 (<= (+ ?x1037 S_3 S_1 ?x1059 ?x1591) 0.0)) (or $x76 $x392 (= ?x1196 0.0)) (or $x1585 (<= (+ ?x1124 (* (- 2.0) S_4) ?x526 ?x1072 ?x1718) 0.0)) (or $x3369 (<= (+ ?x2208 ?x17458 ?x1192) 0.0)) (or $x76 (<= (+ ?x2295 A_2 S_4 ?x580 ?x2264 B) 0.0)) (or $x3369 (<= (+ ?x1093 S_5 (* (- 4.0) S_3) ?x1140 ?x1718) 0.0)) (or $x76 (<= (+ ?x18364 ?x466 ?x12585 ?x12584 L_3 ?x13703) 0.0) $x149454) $x178219 $x191269 (or $x56 (<= (+ ?x470 ?x474 L_2 S_3 S_0 L_1 B) 0.0)) (or $x56 (<= (+ A_3 ?x1201 ?x20232 ?x1202 ?x567 ?x1591) 0.0)) (or $x2207 (<= (+ (* (/ 1.0 3.0) S_3) (* (- 1.0) S_2) ?x3694) 0.0)) (or $x86 (<= (+ ?x462 S_3 L_4 B) (- 5.0))) $x190238 (or $x86 $x394 $x432 (<= (+ ?x462 ?x1124 ?x1113 ?x1120 ?x1072 L_4) 0.0)) $x176863 $x365857 $x378323 (or $x56 $x86 $x392 $x154466) (or $x66 (<= (+ ?x466 ?x470 A_1 S_4 L_3 ?x593 L_2) 0.0)) $x161441 (or $x1585 (<= (+ ?x462 ?x4286 S_5 L_4 ?x11798 ?x3591 ?x2890) 0.0) $x33476) $x178538 (or $x2207 (<= (+ ?x470 S_3 L_2 (* (- 1.0) S_2) S_0) 0.0)) (or $x86 (= ?x2636 0.0) (not $x149454)) (or $x1581 (<= (+ ?x482 S_3) (- 5.0))) $x373753 (or $x3369 (<= (+ ?x466 A_1 L_3 S_4 ?x504 ?x593 ?x610) 0.0)) $x178750 (or $x66 $x1581 (<= (+ ?x2802 ?x4551 S_3 ?x3287 ?x2879) 0.0)) (or $x76 (<= (+ ?x462 ?x466 A_2 S_5 L_4 ?x580 L_3) 0.0)) (or $x3369 (<= (+ ?x1223 ?x504 ?x2925 L_0) 0.0)) (or $x3369 (<= (+ ?x462 S_5 L_4 ?x504 S_1) 0.0)) (or $x1585 (<= (+ ?x4940 ?x493 ?x12527 ?x4943 ?x2890) 0.0)) (or $x1585 $x26292 (<= (+ ?x18364 ?x493 ?x5529 ?x13703 (* (- (/ 2.0 3.0)) B)) 0.0)) (or $x1585 (<= (+ ?x953 ?x474 ?x493 L_1 ?x1086 ?x1588) 0.0)) $x380451 (or $x56 (<= (+ A_4 ?x470 ?x1113 ?x554 L_2 ?x20232 ?x1120 B) 0.0)) (or $x56 $x86 $x151829) (or $x86 (= ?x2318 0.0) (not $x150638)) $x163949 (or $x1581 (<= (+ ?x1924 ?x482 ?x504 ?x1925 ?x1588) 0.0)) (or $x66 (<= (+ ?x466 ?x1037 ?x1027 S_5 L_3 ?x1064 ?x1059) 0.0)) (or $x1585 $x1992 $x26292 $x33858) $x379648 (or $x86 $x20252 $x22068 $x150892) (or $x2207 (<= (+ (* (- 1.0) S_2) S_0) (- 5.0))) (or $x56 (<= (+ ?x470 ?x1113 L_2 S_4 ?x20232 ?x1120 ?x1591) 0.0)) $x183198 (or $x56 (<= (+ ?x1201 S_3 ?x20232 ?x1202 ?x1604) 0.0)) (or $x56 $x43935) $x97384 (or $x1581 (<= (+ ?x1223 ?x40612 (* 4.0 S_3) L_0) 0.0)) (or $x1581 (<= (+ ?x40612 (* 4.0 S_3) ?x526) 0.0)) $x366034 (or $x3369 (<= (+ ?x466 L_3 S_4 ?x504 S_1) 0.0)) (or $x76 (<= (+ ?x1999 ?x953 S_5 ?x1086 ?x2000 B) 0.0)) (or $x1581 $x10446 (<= (+ ?x4551 ?x12527) (- 5.0))) (or $x76 $x6963 (<= (+ ?x1708 ?x466 A_1 ?x2474 ?x1882 ?x593 L_3) 0.0)) $x368232 (or $x1581 (<= (+ ?x953 ?x1223 ?x482 ?x1086 ?x1588 L_0) 0.0) $x57668) (or $x2207 (<= (+ ?x462 S_5 L_4 (* (- 1.0) S_2) S_0) 0.0)) (or $x1585 (<= (+ (* (- 3.0) S_4) (* 4.0 S_2) ?x1192) 0.0)) $x97344 (or $x1585 (<= (+ (* (- 2.0) S_4) (* 3.0 S_2) ?x526) 0.0)) (or $x86 $x1877 (<= (+ ?x2616 A_1 ?x11443 ?x593 ?x2606 ?x1604) 0.0) $x63853) (or $x86 $x20082 $x22068 $x150892) $x106055 $x378524 (or $x3369 (<= (+ ?x504 S_1) (- 5.0))) (or $x1581 (<= (+ ?x2582 ?x1223 ?x40612 ?x2593 ?x11275 L_0) 0.0)) $x176171 (or $x66 (<= (+ ?x462 ?x470 S_5 L_4 S_1 L_2 B) 0.0)) (or $x66 (<= (+ ?x1145 ?x1093 ?x1140 S_5 ?x1089 ?x10029) 0.0) $x45580) $x166712 $x368016 $x372166 (or $x1581 (<= (+ ?x2604 ?x38308 ?x1192 ?x17098 ?x41311) 0.0) $x145054) $x374970 $x368663 (or $x76 (<= (+ ?x466 A_1 ?x593 L_3) (- 10.0))) $x375649 $x167325 (or $x56 (<= (+ ?x466 ?x474 L_3 S_4 S_0 L_1 B) 0.0)) $x367246 (or $x86 (<= (+ ?x2579 ?x2582 ?x526 ?x2593 ?x2540 ?x610) 0.0)) $x114825 (or $x3369 (<= (+ (* (/ 1.0 3.0) S_4) ?x504 ?x5191) 0.0)) (or $x3369 (<= (+ ?x22372 ?x504 ?x5191 ?x14331 ?x3713) 0.0)) $x179633 (or $x2207 (<= (+ ?x470 L_2 S_4 ?x2461 ?x20232) 0.0)) (or $x2207 (<= (+ ?x470 S_5 L_2 (* (- 3.0) S_2) ?x22602) 0.0)) (or $x66 $x38573 $x153695) (or $x1581 (<= (+ ?x38308 (* 5.0 S_3) ?x1192) 0.0)) $x370778 $x370144 $x366200 $x118559 $x365797 (or $x66 (<= (+ ?x466 ?x470 L_3 S_4 S_1 L_2 B) 0.0)) $x373492 $x367283 $x168871 (or $x1496 $x1585 $x26292 (<= (+ ?x18364 ?x12585 ?x493 ?x13703 ?x610 ?x41942) 0.0)) $x177894 (or $x1585 $x4941 $x26292 (<= 0.0 (+ ?x4951 ?x474 ?x4555 L_1 ?x4964 ?x4953))) (or $x1581 (<= (+ A_2 ?x482 ?x580 S_1 ?x1192) 0.0) $x155911 $x166912) $x121999 $x122256 $x369682 (or $x86 $x1933 $x20082 $x42989) (or $x1585 $x59372 (<= (+ (* (/ 1.0 2.0) S_5) ?x493 ?x2885) 0.0)) (or $x1276 $x1581 (<= (+ A_3 A_2 ?x474 ?x482 ?x567 ?x610) 0.0) $x39853) $x170110 (or $x2207 (<= (+ ?x466 S_5 L_3 ?x2461 ?x20232) 0.0)) (or $x86 $x31503 $x62188) $x170146 (or $x56 (<= (+ ?x470 ?x1201 S_5 L_2 ?x22602 ?x1202 ?x1604) 0.0)) $x123216 $x377147 $x376618 (or $x66 $x48673 (not (<= 0.0 (+ ?x3424 ?x474 ?x3421 L_1 ?x3320 ?x2890)))) (or $x86 $x1933 $x20252 $x40380) $x377561 $x377748 $x128009 (or $x86 $x1933 (<= (+ ?x462 A_1 ?x593 L_4) (- 15.0))) $x369832 $x170930 (or $x66 $x17122) (or $x76 (<= (+ ?x2880 ?x2885 ?x2907 ?x2879) (- 5.0)) $x151233) (or $x86 (<= (+ ?x462 A_2 ?x580 L_4) (- 10.0))) $x171269 $x376025 $x171413 $x171622 (or $x86 $x1942 $x20252 $x40380) (or $x86 $x17118 $x101179) (or $x66 (<= (+ A_4 ?x466 ?x470 L_3 S_1 L_2 ?x554) 0.0)) $x370361 $x373647 $x191603 $x137836 (or $x86 $x149734 (<= (+ ?x462 A_1 ?x593 L_4) (- 15.0))) (or $x1581 $x10446 $x150504 (<= (+ ?x12585 ?x12584 ?x5533) (- 5.0)) $x152683) $x138891 $x139002 $x368691 (or $x66 (<= (+ A_4 ?x1037 S_0 ?x1059 ?x554 B) 0.0) $x158776) $x172472 (or $x86 $x32620) (or $x1581 (<= (+ ?x2582 ?x40612 ?x526 ?x2593 ?x11275) 0.0)) (or $x86 (<= (+ ?x2616 ?x2604 ?x1192 ?x2618 ?x2606 ?x610) 0.0)) (or $x3369 (<= (+ ?x466 S_5 L_3 ?x2208 ?x2925) 0.0)) $x373251 (or $x1581 $x38137) (or $x76 (<= (+ ?x1999 (* 4.0 S_2) ?x1192 ?x2000 ?x1604) 0.0)) $x373952 (or $x76 (<= (+ ?x2295 S_5 S_1 ?x2264 ?x1591) 0.0) $x7037) (or $x76 $x7037 (<= (+ ?x2295 A_1 S_5 ?x593 ?x2264 B) 0.0)) (or $x76 (<= (+ ?x2610 ?x2585 S_0 ?x2612 ?x2580 B) 0.0) $x149454 $x150638) $x143480 $x380536 $x375742 (or $x76 (<= (+ ?x462 ?x466 S_5 L_4 S_2 L_3 B) 0.0)) $x371548 (or $x86 $x8733 $x102816) (or $x1581 $x10446 $x32920 (<= (+ ?x5533 ?x5529) (- 5.0))) $x365011 (or $x86 $x149133 $x149734 (<= (+ ?x462 A_1 ?x593 L_4 B) (- 15.0)) $x153586) (or $x86 $x8733 $x101149) $x177613 $x376185 (or $x66 (<= (+ ?x466 ?x1037 S_5 L_3 ?x2925 ?x1059 ?x1591) 0.0)) $x183749 $x377014 (or $x86 $x17107 $x151860 $x158776) (or $x86 $x17107 $x101149) (or $x2207 (<= (+ A_4 ?x470 L_2 ?x2461 ?x20232 ?x554 ?x610) 0.0)) $x176102 $x173903 (or $x86 $x1877 (<= (+ ?x15084 S_5 ?x12527 ?x15080 ?x2887) 0.0)) (or $x1581 (<= (+ ?x2604 ?x38308 ?x1192 ?x2618 ?x41311) 0.0)) (or $x86 $x17078 $x151860 $x158776) (or $x86 $x17078 (not $x41925) $x151860) $x373945 (or $x66 (<= (+ ?x1037 S_4 S_0 ?x1059 ?x1591) 0.0) $x153680) (or $x76 $x2886 $x6977) (or $x3369 $x8082 $x15735) $x174129 $x148411 (or $x86 $x17078 $x102816) (or $x76 $x7037 $x118839) (or $x3369 $x8082 (<= (+ ?x466 ?x1027 S_5 L_3 ?x2208 ?x1064) 0.0)) (or $x76 $x6963 $x118839) (or $x66 (<= (+ ?x466 ?x2802 L_3 S_4 ?x3421 ?x3287 ?x2879) 0.0) $x48673) (or $x86 $x149734 $x153586 (<= (+ ?x24051 ?x5529 ?x14337 ?x3719) (- 5.0))) (or $x1585 $x33476 $x35021) $x174379 (or $x1581 $x14123 $x70011 $x166912) $x174559 $x174603 (or $x396 $x1581 $x10446 $x32920 $x150504) (or $x76 (<= (+ ?x2295 A_1 ?x593 S_5 ?x2264 ?x1591) 0.0) $x3698 $x7037) $x536 $x39 (<= (+ ?x466 S_3 L_3) 0.0) (<= (+ ?x1223 S_0 L_0) 0.0) (<= (+ ?x462 L_4 S_4) 0.0) (<= (+ ?x470 S_2 L_2) 0.0) (<= (+ ?x474 L_1 S_1) 0.0))))))))))))))))))))))))))))))))))))))))))))))))))))))))))))))))))))))))))))))))))))))))))))))))))))))))))))))))))))))))))))))))))))))))))))))))))))))))))))))))))))))))))))))))))))))))))))))))))))))))))))))))))))))))))))))))))))))))))))))))))))))))))))))))))))))))))))))))))))))))))))))))))))))))))))))))))))))))))))))))))))))))))))))))))))))))))))))))))))))))))))))))))
(check-sat)
